
Starting CP-SAT solver v9.15.6755
Parameters: random_seed: 2026072421 max_time_in_seconds: 2312.9587237364285 log_search_progress: true cp_model_presolve: true linearization_level: 2 num_search_workers: 4 cp_model_probing_level: 2 symmetry_level: 2

Initial satisfaction model '': (model_fingerprint: 0x48e196f83d09f574)
#Variables: 724 (598 primary variables)
  - 724 Booleans in [0,1]
#kBoolAnd: 110 (#enforced: 110) (#literals: 330)
#kBoolOr: 110 (#enforced: 110) (#literals: 220)
#kExactlyOne: 87 (#literals: 261)
#kLinear1: 42 (#enforced: 6)
#kLinear2: 336 (#enforced: 336) (#complex_domain: 110)
#kLinear3: 1'600 (#enforced: 6)
#kLinearN: 1'132 (#enforced: 243) (#terms: 9'111)

Starting presolve at 0.00s
  6.75e-04s  0.00e+00d  [DetectDominanceRelations] 
  8.83e-03s  0.00e+00d  [PresolveToFixPoint] #num_loops=3 #num_dual_strengthening=1 
  3.74e-05s  0.00e+00d  [ExtractEncodingFromLinear] #potential_supersets=75 
  2.91e-04s  0.00e+00d  [DetectDuplicateColumns] 
  1.06e-04s  0.00e+00d  [DetectDuplicateConstraints] #duplicates=15 
[Symmetry] Graph for symmetry has 4'813 nodes and 15'261 arcs.
[Symmetry] Symmetry computation done. time: 0.00126171 dtime: 0.00174281
[SAT presolve] num removable Booleans: 220 / 604
[SAT presolve] num trivial clauses: 0
[SAT presolve] [0s] clauses:2'672 literals:7'308 vars:498 one_side_vars:57 simple_definition:1 singleton_clauses:0
[SAT presolve] [0.000207288s] clauses:2'648 literals:7'235 vars:498 one_side_vars:58 simple_definition:2 singleton_clauses:1
[SAT presolve] [0.000652881s] clauses:2'170 literals:6'480 vars:367 one_side_vars:68 simple_definition:59 singleton_clauses:1
  1.32e-04s  0.00e+00d  [DetectDuplicateConstraintsWithDifferentEnforcements] 
  5.09e-03s  1.89e-03d  [Probe] #probed=1'245 #fixed_bools=18 #equiv=6 #new_binary_clauses=330 
  3.92e-04s  1.93e-04d  [MaxClique] Merged 516 constraints with 1'153 literals into 463 constraints with 1'058 literals
  8.20e-04s  0.00e+00d  [DetectDominanceRelations] 
  3.09e-03s  0.00e+00d  [PresolveToFixPoint] #num_loops=1 #num_dual_strengthening=1 
  1.09e-03s  0.00e+00d  [ProcessAtMostOneAndLinear] 
  1.14e-04s  0.00e+00d  [DetectDuplicateConstraints] #duplicates=12 
  8.48e-05s  0.00e+00d  [DetectDuplicateConstraintsWithDifferentEnforcements] 
  7.09e-04s  5.25e-05d  [DetectDominatedLinearConstraints] #relevant_constraints=798 #num_inclusions=272 #num_redundant=9 
  1.06e-04s  0.00e+00d  [DetectDifferentVariables] 
  7.29e-04s  8.26e-05d  [ProcessSetPPC] #relevant_constraints=2'928 #num_inclusions=103 
  2.56e-04s  3.31e-05d  [TransformClausesToExactlyOne] #num_amos=459 #num_clauses=1'678 #num_checked=1'678 
  6.65e-05s  0.00e+00d  [DetectEncodedComplexDomains] 
  3.57e-05s  3.50e-07d  [FindAlmostIdenticalLinearConstraints] #num_tested_pairs=5 
  8.30e-04s  1.30e-03d  [FindBigAtMostOneAndLinearOverlap] 
  1.40e-03s  1.20e-03d  [FindBigVerticalLinearOverlap] 
  3.87e-04s  6.99e-04d  [FindBigHorizontalLinearOverlap] #linears=431 
  3.29e-04s  2.74e-05d  [MergeClauses] #num_collisions=30 #num_merges=30 #num_saved_literals=150 
  8.03e-04s  0.00e+00d  [DetectDominanceRelations] 
  2.89e-03s  0.00e+00d  [PresolveToFixPoint] #num_loops=1 #num_dual_strengthening=1 
  7.68e-04s  0.00e+00d  [DetectDominanceRelations] 
  2.86e-03s  0.00e+00d  [PresolveToFixPoint] #num_loops=1 #num_dual_strengthening=1 
  2.09e-04s  0.00e+00d  [DetectDuplicateColumns] 
  8.79e-05s  0.00e+00d  [DetectDuplicateConstraints] 
[Symmetry] Graph for symmetry has 4'173 nodes and 12'963 arcs.
[Symmetry] Symmetry computation done. time: 0.000866389 dtime: 0.00124694
[SAT presolve] num removable Booleans: 89 / 449
[SAT presolve] num trivial clauses: 0
[SAT presolve] [0s] clauses:2'108 literals:6'343 vars:431 one_side_vars:137 simple_definition:64 singleton_clauses:0
[SAT presolve] [0.000205745s] clauses:2'108 literals:6'145 vars:431 one_side_vars:181 simple_definition:56 singleton_clauses:0
[SAT presolve] [0.000279633s] clauses:2'100 literals:6'137 vars:427 one_side_vars:183 simple_definition:46 singleton_clauses:0
  1.50e-04s  0.00e+00d  [DetectDuplicateConstraintsWithDifferentEnforcements] 
  4.32e-03s  1.50e-03d  [Probe] #probed=1'228 #new_binary_clauses=59 
  3.65e-04s  1.85e-04d  [MaxClique] Merged 455 constraints with 981 literals into 452 constraints with 981 literals
  8.03e-04s  0.00e+00d  [DetectDominanceRelations] 
  2.93e-03s  0.00e+00d  [PresolveToFixPoint] #num_loops=1 #num_dual_strengthening=1 
  1.01e-03s  0.00e+00d  [ProcessAtMostOneAndLinear] 
  1.30e-04s  0.00e+00d  [DetectDuplicateConstraints] 
  9.43e-05s  0.00e+00d  [DetectDuplicateConstraintsWithDifferentEnforcements] 
  9.72e-04s  5.34e-05d  [DetectDominatedLinearConstraints] #relevant_constraints=790 #num_inclusions=270 #num_redundant=1 
  1.17e-04s  0.00e+00d  [DetectDifferentVariables] 
  7.02e-04s  7.82e-05d  [ProcessSetPPC] #relevant_constraints=2'960 #num_inclusions=125 
  2.69e-04s  3.25e-05d  [TransformClausesToExactlyOne] #num_amos=453 #num_clauses=1'672 #num_checked=1'672 
  4.56e-05s  0.00e+00d  [DetectEncodedComplexDomains] 
  4.27e-05s  2.10e-07d  [FindAlmostIdenticalLinearConstraints] #num_tested_pairs=3 
  8.40e-04s  1.22e-03d  [FindBigAtMostOneAndLinearOverlap] 
  1.29e-03s  1.12e-03d  [FindBigVerticalLinearOverlap] 
  3.88e-04s  6.56e-04d  [FindBigHorizontalLinearOverlap] #linears=431 
  3.13e-04s  2.64e-05d  [MergeClauses] #num_collisions=81 #num_merges=81 #num_saved_literals=244 
  8.11e-04s  0.00e+00d  [DetectDominanceRelations] 
  2.93e-03s  0.00e+00d  [PresolveToFixPoint] #num_loops=1 #num_dual_strengthening=1 
  8.12e-04s  0.00e+00d  [DetectDominanceRelations] 
  2.91e-03s  0.00e+00d  [PresolveToFixPoint] #num_loops=1 #num_dual_strengthening=1 
  1.75e-04s  0.00e+00d  [DetectDuplicateColumns] 
  1.05e-04s  0.00e+00d  [DetectDuplicateConstraints] 
[Symmetry] Graph for symmetry has 4'110 nodes and 12'623 arcs.
[Symmetry] Symmetry computation done. time: 0.000969001 dtime: 0.00130248
[SAT presolve] num removable Booleans: 85 / 445
[SAT presolve] num trivial clauses: 0
[SAT presolve] [0s] clauses:2'094 literals:6'123 vars:427 one_side_vars:183 simple_definition:46 singleton_clauses:0
[SAT presolve] [0.000193742s] clauses:2'094 literals:6'123 vars:427 one_side_vars:183 simple_definition:46 singleton_clauses:0
[SAT presolve] [0.000252161s] clauses:2'094 literals:6'123 vars:427 one_side_vars:183 simple_definition:46 singleton_clauses:0
  1.29e-04s  0.00e+00d  [DetectDuplicateConstraintsWithDifferentEnforcements] 
  4.32e-03s  1.49e-03d  [Probe] #probed=1'228 #new_binary_clauses=59 
  3.51e-04s  1.83e-04d  [MaxClique] 
  8.32e-04s  0.00e+00d  [DetectDominanceRelations] 
  2.98e-03s  0.00e+00d  [PresolveToFixPoint] #num_loops=1 #num_dual_strengthening=1 
  1.02e-03s  0.00e+00d  [ProcessAtMostOneAndLinear] 
  1.41e-04s  0.00e+00d  [DetectDuplicateConstraints] 
  1.03e-04s  0.00e+00d  [DetectDuplicateConstraintsWithDifferentEnforcements] 
  1.34e-03s  5.79e-05d  [DetectDominatedLinearConstraints] #relevant_constraints=790 #num_inclusions=293 #num_redundant=1 
  1.26e-04s  0.00e+00d  [DetectDifferentVariables] 
  7.15e-04s  7.62e-05d  [ProcessSetPPC] #relevant_constraints=2'959 #num_inclusions=118 
  2.74e-04s  3.25e-05d  [TransformClausesToExactlyOne] #num_amos=451 #num_clauses=1'672 #num_checked=1'672 
  6.68e-05s  0.00e+00d  [DetectEncodedComplexDomains] 
  6.59e-05s  3.20e-07d  [FindAlmostIdenticalLinearConstraints] #num_tested_pairs=4 
  8.05e-04s  1.16e-03d  [FindBigAtMostOneAndLinearOverlap] 
  1.27e-03s  1.05e-03d  [FindBigVerticalLinearOverlap] 
  3.69e-04s  6.17e-04d  [FindBigHorizontalLinearOverlap] #linears=431 
  3.34e-04s  2.64e-05d  [MergeClauses] #num_collisions=81 #num_merges=81 #num_saved_literals=244 
  8.49e-04s  0.00e+00d  [DetectDominanceRelations] 
  3.00e-03s  0.00e+00d  [PresolveToFixPoint] #num_loops=1 #num_dual_strengthening=1 
  3.23e-05s  0.00e+00d  [MergeNoOverlap] 
  3.23e-05s  0.00e+00d  [MergeNoOverlap2D] 

Presolve summary:
  - 32 affine relations were detected.
  - rule 'TODO dual: only one blocking constraint?' was applied 761 times.
  - rule 'TODO linear inclusion: superset is equality' was applied 79 times.
  - rule 'affine: new relation' was applied 32 times.
  - rule 'at_most_one: removed literals' was applied 49 times.
  - rule 'at_most_one: size one' was applied 47 times.
  - rule 'at_most_one: transformed into max clique' was applied 2 times.
  - rule 'bool_or: always true' was applied 1 time.
  - rule 'bool_or: implications' was applied 53 times.
  - rule 'bool_or: only one literal' was applied 12 times.
  - rule 'bool_or: removed enforcement literal' was applied 557 times.
  - rule 'deductions: 670 stored' was applied 1 time.
  - rule 'duplicate: merged rhs of linear constraint' was applied 26 times.
  - rule 'duplicate: removed constraint' was applied 27 times.
  - rule 'enforcement: false literal' was applied 56 times.
  - rule 'enforcement: true literal' was applied 24 times.
  - rule 'exactly_one: removed literals' was applied 28 times.
  - rule 'exactly_one: satisfied' was applied 13 times.
  - rule 'exactly_one: singleton' was applied 2 times.
  - rule 'exactly_one: size two' was applied 26 times.
  - rule 'exactly_one: x and not(x)' was applied 5 times.
  - rule 'incompatible linear: add implication' was applied 114 times.
  - rule 'linear + amo: empty after processing' was applied 5 times.
  - rule 'linear + amo: extracted enforcement literal' was applied 48 times.
  - rule 'linear + amo: trivial linear constraint' was applied 1 time.
  - rule 'linear inclusion: redundant containing constraint' was applied 3 times.
  - rule 'linear inclusion: redundant included constraint' was applied 5 times.
  - rule 'linear inclusion: sparsify superset' was applied 3 times.
  - rule 'linear1: x in domain' was applied 36 times.
  - rule 'linear2: convert ax + by != cte to clauses' was applied 257 times.
  - rule 'linear2: convert implied ax + by == cte to clauses' was applied 114 times.
  - rule 'linear2: implied ax + by = cte has only one solution' was applied 7 times.
  - rule 'linear: always true' was applied 416 times.
  - rule 'linear: coefficient strengthening by increasing it' was applied 2 times.
  - rule 'linear: empty' was applied 1 time.
  - rule 'linear: extracted at most one (max)' was applied 1 time.
  - rule 'linear: fixed or dup variables' was applied 917 times.
  - rule 'linear: negative clause' was applied 1'304 times.
  - rule 'linear: negative reified and' was applied 68 times.
  - rule 'linear: never in domain' was applied 5 times.
  - rule 'linear: positive at most one' was applied 29 times.
  - rule 'linear: reduced variable domains' was applied 1 time.
  - rule 'linear: remapped using affine relations' was applied 22 times.
  - rule 'presolve: 110 unused variables removed.' was applied 1 time.
  - rule 'presolve: iteration' was applied 3 times.
  - rule 'probing: bool_or reduced to implication' was applied 14 times.
  - rule 'probing: simplified clauses' was applied 4 times.
  - rule 'setppc: bool_or in at_most_one' was applied 5 times.
  - rule 'setppc: removed dominated constraints' was applied 77 times.

Presolved satisfaction model '': (model_fingerprint: 0xed26bb426027e2a6)
#Variables: 445 (378 primary variables)
  - 445 Booleans in [0,1]
#kAtMostOne: 29 (#literals: 129)
#kBoolAnd: 259 (#enforced: 259) (#literals: 681)
#kBoolAndClauses: 81 (#enforced: 81 #multi: 81) (#literals: 406)
#kBoolOr: 1'510 (#literals: 4'629)
#kExactlyOne: 46 (#literals: 176)
#kLinearN: 790 (#enforced: 102) (#terms: 5'389)
[Symmetry] Graph for symmetry has 3'831 nodes and 12'605 arcs.
[Symmetry] Symmetry computation done. time: 0.000804213 dtime: 0.00128251

Preloading model.
#Model   0.09s var:445/445 constraints:2715/2715

Starting search at 0.09s with 4 workers.
3 full problem subsolvers: [default_lp, max_lp, no_lp]
1 first solution subsolver: [fj]
2 interleaved subsolvers: [feasibility_pump, rins/rens]
2 helper subsolvers: [neighborhood_helper, synchronization_agent]

#Model   0.23s var:444/445 constraints:2715/2715
#Model   0.34s var:442/445 constraints:2715/2715
#Model   0.40s var:441/445 constraints:2714/2715
#Model   0.50s var:440/445 constraints:2714/2715
#Model   0.70s var:439/445 constraints:2713/2715
#Model   0.95s var:437/445 constraints:2711/2715
#Model  99.84s var:436/445 constraints:2690/2715
#Model 127.93s var:435/445 constraints:2688/2715
#Model 226.79s var:434/445 constraints:2668/2715
#Model 437.35s var:433/445 constraints:2651/2715
#Model 458.06s var:432/445 constraints:2630/2715
#Model 578.87s var:431/445 constraints:2610/2715
#Model 579.86s var:424/445 constraints:2534/2715
#Model 582.15s var:394/445 constraints:2152/2715
#Model 582.71s var:392/445 constraints:2117/2715
#Model 583.14s var:391/445 constraints:2098/2715
#Model 583.33s var:371/445 constraints:1797/2715 compo:370,1
#Done  583.37s no_lp

Task timing                   n [     min,      max]      avg      dev     time         n [     min,      max]      avg      dev    dtime
        'default_lp':         1 [   9.72m,    9.72m]    9.72m   0.00ns    9.72m         2 [  1.89ms,   10.14m]    5.07m    5.07m   10.14m
  'feasibility_pump':      2895 [798.86us, 165.16ms]   1.38ms   3.06ms    3.99s      2894 [259.24us, 148.15ms] 310.34us   2.75ms 898.12ms
                'fj':      2133 [ 41.19ms, 242.86ms] 135.72ms   9.25ms    4.82m      2133 [ 27.20ms, 100.15ms]  99.99ms   1.58ms    3.55m
            'max_lp':         1 [   9.72m,    9.72m]    9.72m   0.00ns    9.72m         2 [ 72.52ms,   13.25m]    6.63m    6.63m   13.25m
             'no_lp':         1 [   9.72m,    9.72m]    9.72m   0.00ns    9.72m         2 [  1.25ms,   19.95m]    9.98m    9.98m   19.95m
         'rins/rens':      2673 [ 21.61ms, 166.71ms] 108.29ms  39.12ms    4.82m      2673 [246.75us, 100.27ms]  67.79ms  37.28ms    3.02m

Search stats     Bools  Conflicts   Branches  Restarts  BacktrackToRoot  Backtrack   BoolPropag  IntegerPropag
  'default_lp':    445     67'076  4'311'945       389          672'871    928'692   36'750'486     35'822'048
      'max_lp':    445     41'138  5'876'729       211          868'721  1'111'076   49'015'615     52'461'439
       'no_lp':    445  6'535'169  9'570'865    24'570          258'264  6'773'888  513'023'992    102'640'366

SAT formula      Fixed  Equiv  Total  VarLeft  BinaryClauses  PermanentClauses  TemporaryClauses
  'default_lp':     13      5    445      427          1'678            25'449             5'755
      'max_lp':     14      6    445      425          1'752            22'132             3'080
       'no_lp':    198      7    445      240          2'814            22'460             1'494

SAT stats        ClassicMinim  LitRemoved  LitRemovedBinary   LitLearned  LitForgotten   Subsumed
  'default_lp':        56'855     542'758           474'847    1'427'532       629'607     28'765
      'max_lp':        32'941     263'285           236'389      672'389       175'593     19'866
       'no_lp':     5'833'168  89'337'262        46'727'684  140'297'876   107'544'053  1'874'603

Vivification     Clauses  Decisions  LitTrue  Subsumed  LitRemoved  DecisionReused  Conflicts
  'default_lp':  763'070  4'133'026        2    11'930     109'713         249'207      1'154
      'max_lp':  954'742  5'716'082        0    13'959     134'366         287'418      1'639
       'no_lp':  214'203  1'818'429       14    16'998     231'685          69'153      2'106

Clause deletion    at_true  l_and_not(l)  to_binary  sub_conflict  sub_extra  sub_decisions  sub_eager  sub_vivify  sub_probing  sub_inpro  blocked  eliminated  forgotten    promoted  conflicts
    'default_lp':    4'181             1          6        28'326        162            815        439      11'930        3'357      8'550        0           0     21'887     120'556     67'076
        'max_lp':    3'366           501          9        19'695         97            458        171      13'959        4'526      9'950        0           0      7'166      60'640     41'138
         'no_lp':   67'712           134        182     1'838'184     15'800         71'567     36'419      16'998       18'882     97'045        0           0  4'355'097  14'885'838  6'535'169

Lp stats         Component  Iterations  AddedCuts  OPTIMAL  DUAL_F.  DUAL_U.
  'default_lp':          1   7'409'584     25'559   82'075        1   42'419
      'max_lp':          1   3'367'573     24'234    9'850   18'688    7'967

Lp dimension        Final dimension of first component
  'default_lp':    298 rows, 314 columns, 2593 entries
      'max_lp':  1529 rows, 445 columns, 46005 entries

Lp debug         CutPropag  CutEqPropag  Adjust  Overflow      Bad  BadScaling
  'default_lp':          3           20  42'419         0  693'455           0
      'max_lp':          0           59   7'961         0  598'204           0

Lp pool          Constraints  Updates  Simplif  Merged  Shortened  Split  Strengthened      Cuts/Call
  'default_lp':       10'299    8'362        0       0         78      0             0  25'559/26'738
      'max_lp':       12'256    9'451        0       1         96      0           620  24'234/30'916

Lp Cut           default_lp  max_lp
         CG_FF:         358      85
          CG_K:         176       3
         CG_KL:         167       1
          CG_R:         393      48
        Clique:           -      94
      MIR_1_FF:         127     419
       MIR_1_K:          26      12
      MIR_1_KL:          61       4
       MIR_1_R:         118     161
     MIR_1_RLT:           -   2'298
      MIR_2_FF:         133     183
       MIR_2_K:          16      20
      MIR_2_KL:          55      24
       MIR_2_R:         131     200
      MIR_3_FF:          74      33
       MIR_3_K:           2       3
      MIR_3_KL:          29       8
       MIR_3_R:          70      69
      MIR_4_FF:          29      10
       MIR_4_K:           5       -
      MIR_4_KL:          11       -
       MIR_4_R:          27      51
      MIR_5_FF:           6       4
       MIR_5_K:           -       1
      MIR_5_KL:           1       1
       MIR_5_R:          15      50
      MIR_6_FF:           3       1
       MIR_6_R:          11      53
  ZERO_HALF_FF:         132     249
   ZERO_HALF_K:           7      13
  ZERO_HALF_KL:           5       1
   ZERO_HALF_R:      23'371  20'135

LNS stats       Improv/Calls  Closed  Difficulty  TimeLimit
  'rins/rens':     2673/2673     50%    8.53e-01       0.10

LS stats                                    Batches  Restarts/Perturbs   LinMoves   GenMoves  CompoundMoves  Bactracks  WeightUpdates  ScoreComputed
                             'fj_restart':      120                 38  3'500'560          0              0          0      3'354'530         40'938
                    'fj_restart_compound':      105                 29          0  1'018'495         70'027    474'180          2'593     17'600'094
                'fj_restart_compound_obj':       85                 23          0    827'721         58'667    384'481          2'044     14'189'373
            'fj_restart_compound_perturb':      114                 42          0  1'090'080         85'515    502'214          2'802     18'969'635
        'fj_restart_compound_perturb_obj':      122                 37          0  1'197'092         87'051    554'954          2'978     20'407'735
                       'fj_restart_decay':       95                 36  2'703'538          0              0          0        126'264        132'613
              'fj_restart_decay_compound':      233                 35          0  2'641'934        462'106  1'089'825          3'128     39'394'727
          'fj_restart_decay_compound_obj':      100                 29          0  1'080'186        191'600    444'216          1'364     16'818'376
      'fj_restart_decay_compound_perturb':       97                 44          0    988'273        175'207    406'448          1'326     16'252'397
  'fj_restart_decay_compound_perturb_obj':      187                 32          0  2'123'497        373'847    874'752          2'523     31'725'753
                   'fj_restart_decay_obj':      219                 39  6'245'825          0              0          0        290'722        314'263
               'fj_restart_decay_perturb':      166                 41  4'730'442          0              0          0        220'309        233'557
           'fj_restart_decay_perturb_obj':       96                 31  2'734'684          0              0          0        127'489        136'616
                         'fj_restart_obj':       79                 36  2'380'730          0              0          0      2'050'841         28'792
                     'fj_restart_perturb':      174                 42  5'049'322          0              0          0      4'789'694         58'985
                 'fj_restart_perturb_obj':      141                 43  4'099'428          0              0          0      3'752'355         47'941

Solution repositories    Added  Queried  Synchro
    'alternative_path':      0        0        0
      'best_solutions':      0        0        0
   'fj solution hints':    569        0      569
        'lp solutions':    272    2'673      270
                'pump':      0        0

Improving bounds shared    Num  Sym
            'default_lp':    5    0
                'max_lp':    2    0
                 'no_lp':  108    0

Clauses shared    #Exported  #Imported  #BinaryRead  #BinaryTotal
   'default_lp':      3'132     42'725          511         1'596
       'max_lp':      4'208     43'762          570         1'596
        'no_lp':     45'931      6'689        1'596         1'596

LRAT_status: NA
CpSolverResponse summary:
status: INFEASIBLE
objective: NA
best_bound: NA
integers: 314
booleans: 445
conflicts: 6535169
branches: 9570865
propagations: 513023992
integer_propagations: 102640366
restarts: 24570
lp_iterations: 0
walltime: 583.388
usertime: 583.388
deterministic_time: 2996.4
gap_integral: 0

{
  "board_size": 22,
  "parity_proved": 0,
  "target": 34,
  "child_id": 321,
  "child_count": 2640,
  "partition": "unknown_pair_x_diag_plus_twos_x_diag_minus_twos",
  "build_seconds": 0.07935738563537598,
  "workers": 4,
  "requested_seed": 2026072421,
  "effective_seed": 2026072421,
  "main_diagonal_pair": [
    1,
    4
  ],
  "pair_index": 23,
  "diag_plus_twos": 16,
  "diag_minus_twos": 15,
  "pair_excess": 26,
  "residual_certificate_slack": 86,
  "analytic_minimum_line_defect": 46,
  "analytic_defect_details": {
    "row_costs": {
      "12": 6,
      "13": 3,
      "14": 0,
      "15": 0,
      "16": 0,
      "17": 0
    },
    "column_costs": {
      "12": 6,
      "13": 3,
      "14": 0,
      "15": 0,
      "16": 0,
      "17": 0
    },
    "plus_cost": 24,
    "minus_cost": 22,
    "row_column_minimum": 0
  },
  "maximal_line_constraints": 2455,
  "analytic_infeasible": false,
  "allowed_points": 242,
  "status": "INFEASIBLE",
  "proof_method": "cp_sat_all_lines_with_certificate_profile_cuts",
  "elapsed_seconds": 583.3882455825806,
  "branches": 9570865,
  "conflicts": 6535169
}
